Sn18 H108 C18 I54 N18
1.0
  10.9465614011418264    0.0000000000000000    0.0000000000000007
  -0.0000000000000009   15.4807755948445998    0.0000000000000009
   0.0000000000000000    0.0000000000000000   26.8134898708431599
Sn H C I N
18 108 18 54 18
direct
   0.0000000000000000    0.0000000000000000    0.0000000000000000 Sn
   0.0000000000000000    0.0000000000000000    0.3333333333333333 Sn
   0.3333333333333334    0.3333333333333333    0.0000000000000000 Sn
   0.3333333333333334    0.3333333333333333    0.3333333333333333 Sn
   0.6666666666666667    0.6666666666666666    0.0000000000000000 Sn
   0.6666666666666667    0.6666666666666666    0.3333333333333334 Sn
   0.6666666666666669    0.1666666666666667    0.1666666666666667 Sn
   0.6666666666666669    0.1666666666666667    0.5000000000000000 Sn
  -0.0000000000000000    0.5000000000000000    0.1666666666666667 Sn
  -0.0000000000000000    0.5000000000000000    0.5000000000000000 Sn
   0.3333333333333331    0.8333333333333333    0.1666666666666667 Sn
   0.3333333333333331    0.8333333333333333    0.5000000000000000 Sn
   0.0000000000000000    0.0000000000000000    0.6666666666666666 Sn
   0.3333333333333333    0.6666666666666667    0.6666666666666666 Sn
   0.6666666666666665    0.3333333333333335    0.6666666666666666 Sn
   0.6666666666666669    0.8333333333333333    0.8333333333333334 Sn
  -0.0000000000000000    0.5000000000000000    0.8333333333333334 Sn
   0.3333333333333330    0.1666666666666670    0.8333333333333334 Sn
   0.2937344806666668    0.1927049936666666    0.1785406010000000 H
   0.2937344806666668    0.1927049936666666    0.5118739343333333 H
   0.6270678139999999    0.5260383270000000    0.1785406009999999 H
   0.6270678139999999    0.5260383270000000    0.5118739343333333 H
   0.9604011473333335    0.8593716603333332    0.1785406010000000 H
   0.9604011473333335    0.8593716603333332    0.5118739343333333 H
   0.9604011473333336    0.3593716603333333    0.0118739343333333 H
   0.9604011473333336    0.3593716603333333    0.3452072676666667 H
   0.2937344806666667    0.6927049936666667    0.0118739343333333 H
   0.2937344806666667    0.6927049936666667    0.3452072676666667 H
   0.6270678140000000    0.0260383270000000    0.0118739343333333 H
   0.6270678140000000    0.0260383270000000    0.3452072676666665 H
   0.2122955680000000    0.2333597920000000    0.1316809540000000 H
   0.2122955680000000    0.2333597920000000    0.4650142873333333 H
   0.5456289013333331    0.5666931253333333    0.1316809540000000 H
   0.5456289013333331    0.5666931253333333    0.4650142873333333 H
   0.8789622346666669    0.9000264586666666    0.1316809540000000 H
   0.8789622346666669    0.9000264586666666    0.4650142873333334 H
   0.8789622346666668    0.4000264586666667    0.2983476206666668 H
   0.8789622346666668    0.4000264586666667    0.6316809540000001 H
   0.2122955679999999    0.7333597919999998    0.2983476206666666 H
   0.2122955679999999    0.7333597919999998    0.6316809540000001 H
   0.5456289013333333    0.0666931253333334    0.2983476206666667 H
   0.5456289013333333    0.0666931253333334    0.6316809540000001 H
   0.1674538793333333    0.0799754893333333    0.1413427286666667 H
   0.1674538793333333    0.0799754893333333    0.4746760620000000 H
   0.5007872126666666    0.4133088226666667    0.1413427286666666 H
   0.5007872126666666    0.4133088226666667    0.4746760620000000 H
   0.8341205460000001    0.7466421559999999    0.1413427286666666 H
   0.8341205460000001    0.7466421559999999    0.4746760620000000 H
   0.8341205460000000    0.2466421560000000    0.3080093953333333 H
   0.8341205460000000    0.2466421560000000    0.6413427286666666 H
   0.1674538793333332    0.5799754893333334    0.3080093953333333 H
   0.1674538793333332    0.5799754893333334    0.6413427286666666 H
   0.5007872126666665    0.9133088226666666    0.3080093953333334 H
   0.5007872126666665    0.9133088226666666    0.6413427286666666 H
   0.1723783113333334    0.2533388153333333    0.1902183053333333 H
   0.1723783113333334    0.2533388153333333    0.5235516386666667 H
   0.5057116446666665    0.5866721486666666    0.1902183053333333 H
   0.5057116446666665    0.5866721486666666    0.5235516386666667 H
   0.8390449780000000    0.9200054819999999    0.1902183053333333 H
   0.8390449780000000    0.9200054819999999    0.5235516386666667 H
   0.8390449780000002    0.4200054820000000    0.0235516386666666 H
   0.8390449780000002    0.4200054820000000    0.3568849720000000 H
   0.1723783113333332    0.7533388153333334    0.0235516386666667 H
   0.1723783113333332    0.7533388153333334    0.3568849720000000 H
   0.5057116446666666    0.0866721486666666    0.0235516386666667 H
   0.5057116446666666    0.0866721486666666    0.3568849720000000 H
   0.0362557773333333    0.1457836763333334    0.1540372843333334 H
   0.0362557773333333    0.1457836763333334    0.4873706176666667 H
   0.3695891106666666    0.4791170096666667    0.1540372843333334 H
   0.3695891106666666    0.4791170096666667    0.4873706176666666 H
   0.7029224440000000    0.8124503430000001    0.1540372843333334 H
   0.7029224440000000    0.8124503430000001    0.4873706176666667 H
   0.7029224440000001    0.3124503430000001    0.3207039510000000 H
   0.7029224440000001    0.3124503430000001    0.6540372843333334 H
   0.0362557773333332    0.6457836763333334    0.3207039510000000 H
   0.0362557773333332    0.6457836763333334    0.6540372843333334 H
   0.3695891106666667    0.9791170096666667    0.3207039510000001 H
   0.3695891106666667    0.9791170096666667    0.6540372843333335 H
   0.1240426706666667    0.1019469416666666    0.2045922116666666 H
   0.1240426706666667    0.1019469416666666    0.5379255449999999 H
   0.4573760039999999    0.4352802749999999    0.2045922116666666 H
   0.4573760039999999    0.4352802749999999    0.5379255449999999 H
   0.7907093373333335    0.7686136083333333    0.2045922116666666 H
   0.7907093373333335    0.7686136083333333    0.5379255450000000 H
   0.7907093373333334    0.2686136083333333    0.0379255449999999 H
   0.7907093373333334    0.2686136083333333    0.3712588783333333 H
   0.1240426706666665    0.6019469416666666    0.0379255449999999 H
   0.1240426706666665    0.6019469416666666    0.3712588783333333 H
   0.4573760039999997    0.9352802749999999    0.0379255449999999 H
   0.4573760039999997    0.9352802749999999    0.3712588783333333 H
   0.2937344806666667    0.8072950063333333    0.8214593990000000 H
   0.6270678139999997    0.4739616730000001    0.8214593990000002 H
   0.9604011473333333    0.1406283396666670    0.8214593990000002 H
   0.9604011473333336    0.6406283396666668    0.9881260656666667 H
   0.2937344806666665    0.3072950063333334    0.9881260656666667 H
   0.6270678140000000    0.9739616730000000    0.9881260656666667 H
   0.2122955679999999    0.7666402080000001    0.8683190460000001 H
   0.5456289013333331    0.4333068746666668    0.8683190460000001 H
   0.8789622346666667    0.0999735413333336    0.8683190460000001 H
   0.8789622346666668    0.5999735413333334    0.7016523793333334 H
   0.2122955679999997    0.2666402080000002    0.7016523793333335 H
   0.5456289013333333    0.9333068746666665    0.7016523793333334 H
   0.1674538793333333    0.9200245106666667    0.8586572713333334 H
   0.5007872126666664    0.5866911773333334    0.8586572713333334 H
   0.8341205459999999    0.2533578440000002    0.8586572713333334 H
   0.8341205460000001    0.7533578439999999    0.6919906046666667 H
   0.1674538793333331    0.4200245106666666    0.6919906046666668 H
   0.5007872126666663    0.0866911773333335    0.6919906046666668 H
   0.1723783113333333    0.7466611846666666    0.8097816946666667 H
   0.5057116446666665    0.4133278513333335    0.8097816946666667 H
   0.8390449779999998    0.0799945180000003    0.8097816946666667 H
   0.8390449780000002    0.5799945180000001    0.9764483613333333 H
   0.1723783113333331    0.2466611846666668    0.9764483613333333 H
   0.5057116446666666    0.9133278513333334    0.9764483613333333 H
   0.0362557773333333    0.8542163236666666    0.8459627156666667 H
   0.3695891106666664    0.5208829903333334    0.8459627156666667 H
   0.7029224439999998    0.1875496570000003    0.8459627156666667 H
   0.7029224440000001    0.6875496569999999    0.6792960490000001 H
   0.0362557773333330    0.3542163236666666    0.6792960490000001 H
   0.3695891106666664    0.0208829903333334    0.6792960490000001 H
   0.1240426706666667    0.8980530583333334    0.7954077883333336 H
   0.4573760039999997    0.5647197250000001    0.7954077883333336 H
   0.7907093373333333    0.2313863916666669    0.7954077883333334 H
   0.7907093373333335    0.7313863916666667    0.9620744550000001 H
   0.1240426706666664    0.3980530583333335    0.9620744550000002 H
   0.4573760039999996    0.0647197250000003    0.9620744550000002 H
   0.1279000046666666    0.1279000046666667    0.1666666666666667 C
   0.1279000046666666    0.1279000046666667    0.5000000000000000 C
   0.4612333380000000    0.4612333379999999    0.1666666666666667 C
   0.4612333380000000    0.4612333379999999    0.5000000000000000 C
   0.7945666713333336    0.7945666713333334    0.1666666666666667 C
   0.7945666713333336    0.7945666713333334    0.5000000000000000 C
   0.7945666713333335    0.2945666713333333   -0.0000000000000000 C
   0.7945666713333335    0.2945666713333333    0.3333333333333333 C
   0.1279000046666665    0.6279000046666665    0.0000000000000000 C
   0.1279000046666665    0.6279000046666665    0.3333333333333333 C
   0.4612333379999998    0.9612333380000000    0.0000000000000000 C
   0.4612333379999998    0.9612333380000000    0.3333333333333334 C
   0.1279000046666666    0.8720999953333333    0.8333333333333334 C
   0.4612333379999998    0.5387666620000001    0.8333333333333334 C
   0.7945666713333334    0.2054333286666669    0.8333333333333334 C
   0.7945666713333336    0.7054333286666667    0.6666666666666666 C
   0.1279000046666663    0.3720999953333336    0.6666666666666666 C
   0.4612333379999996    0.0387666620000002    0.6666666666666669 C
   0.1666666666666667    0.1666666666666667    0.0000000000000000 I
   0.1666666666666667    0.1666666666666667    0.3333333333333333 I
   0.4999999999999999    0.4999999999999999    0.0000000000000000 I
   0.4999999999999999    0.4999999999999999    0.3333333333333333 I
   0.8333333333333335    0.8333333333333334    0.0000000000000000 I
   0.8333333333333335    0.8333333333333334    0.3333333333333334 I
   0.8333333333333334    0.3333333333333334    0.1666666666666667 I
   0.8333333333333334    0.3333333333333334    0.5000000000000000 I
   0.1666666666666665    0.6666666666666667    0.1666666666666667 I
   0.1666666666666665    0.6666666666666667    0.5000000000000000 I
   0.4999999999999999    0.0000000000000000    0.1666666666666667 I
   0.4999999999999999    0.0000000000000000    0.5000000000000000 I
   0.1666666666666667    0.9166666666666664    0.0833333333333333 I
   0.1666666666666667    0.9166666666666664    0.4166666666666667 I
   0.5000000000000000    0.2500000000000000    0.0833333333333333 I
   0.5000000000000000    0.2500000000000000    0.4166666666666667 I
   0.8333333333333334    0.5833333333333333    0.0833333333333333 I
   0.8333333333333334    0.5833333333333333    0.4166666666666667 I
   0.8333333333333336    0.0833333333333333    0.2500000000000000 I
   0.8333333333333336    0.0833333333333333    0.5833333333333334 I
   0.1666666666666666    0.4166666666666667    0.2500000000000000 I
   0.1666666666666666    0.4166666666666667    0.5833333333333334 I
   0.4999999999999999    0.7499999999999999    0.2500000000000000 I
   0.4999999999999999    0.7499999999999999    0.5833333333333334 I
   0.8333333333333333    0.0833333333333333    0.0833333333333333 I
   0.8333333333333333    0.0833333333333333    0.4166666666666667 I
   0.1666666666666667    0.4166666666666667    0.0833333333333333 I
   0.1666666666666667    0.4166666666666667    0.4166666666666667 I
   0.4999999999999999    0.7500000000000000    0.0833333333333333 I
   0.4999999999999999    0.7500000000000000    0.4166666666666667 I
   0.5000000000000001    0.2500000000000000    0.2500000000000000 I
   0.5000000000000001    0.2500000000000000    0.5833333333333334 I
   0.8333333333333333    0.5833333333333334    0.2500000000000000 I
   0.8333333333333333    0.5833333333333334    0.5833333333333334 I
   0.1666666666666664    0.9166666666666664    0.2500000000000001 I
   0.1666666666666664    0.9166666666666664    0.5833333333333334 I
   0.1666666666666666    0.8333333333333334    0.6666666666666666 I
   0.4999999999999997    0.5000000000000002    0.6666666666666666 I
   0.8333333333333333    0.1666666666666668    0.6666666666666666 I
   0.8333333333333335    0.6666666666666666    0.8333333333333334 I
   0.1666666666666664    0.3333333333333334    0.8333333333333334 I
   0.4999999999999999    0.0000000000000000    0.8333333333333334 I
   0.1666666666666665    0.0833333333333338    0.9166666666666667 I
   0.4999999999999999    0.7500000000000000    0.9166666666666667 I
   0.8333333333333334    0.4166666666666669    0.9166666666666667 I
   0.8333333333333338    0.9166666666666664    0.7500000000000000 I
   0.1666666666666665    0.5833333333333334    0.7500000000000000 I
   0.4999999999999997    0.2500000000000001    0.7500000000000001 I
   0.8333333333333335    0.9166666666666664    0.9166666666666667 I
   0.1666666666666666    0.5833333333333335    0.9166666666666667 I
   0.4999999999999997    0.2500000000000001    0.9166666666666667 I
   0.5000000000000001    0.7500000000000000    0.7500000000000000 I
   0.8333333333333333    0.4166666666666666    0.7500000000000001 I
   0.1666666666666662    0.0833333333333337    0.7500000000000002 I
   0.2054333286666667    0.2054333286666666    0.1666666666666667 N
   0.2054333286666667    0.2054333286666666    0.5000000000000000 N
   0.5387666619999998    0.5387666620000000    0.1666666666666667 N
   0.5387666619999998    0.5387666620000000    0.5000000000000000 N
   0.8720999953333335    0.8720999953333334    0.1666666666666667 N
   0.8720999953333335    0.8720999953333334    0.5000000000000000 N
   0.8720999953333333    0.3720999953333333    0.0000000000000000 N
   0.8720999953333333    0.3720999953333333    0.3333333333333334 N
   0.2054333286666665    0.7054333286666667    0.0000000000000000 N
   0.2054333286666665    0.7054333286666667    0.3333333333333333 N
   0.5387666619999999    0.0387666619999998    0.0000000000000000 N
   0.5387666619999999    0.0387666619999998    0.3333333333333333 N
   0.2054333286666666    0.7945666713333334    0.8333333333333334 N
   0.5387666619999998    0.4612333380000001    0.8333333333333334 N
   0.8720999953333333    0.1279000046666668    0.8333333333333334 N
   0.8720999953333333    0.6279000046666665    0.6666666666666666 N
   0.2054333286666664    0.2945666713333334    0.6666666666666669 N
   0.5387666619999999    0.9612333380000002    0.6666666666666666 N
